db/data/261523002620502649920405136892016616746.z3.out
-------------------
2500.079774483
